0
Node Left Objective IInf Best_Integer Best_Bound ItCnt Gap
0+ 0 nan nan 34161.4517 -3416.1452 nan 110.00%
0+ 0 nan nan -9.1115 -3416.1452 nan ---
0 0 -272.2296 18 -9.1115 -272.2296 107 ---
0 0 -271.5071 17 -9.1115 Fract:9 130 ---
0+ 0 nan nan -243.0290 -271.5071 nan 11.72%
0 0 -270.4459 19 -243.0290 Fract:15 144 11.28%
0 0 -269.9565 22 -243.0290 Fract:15 170 11.08%
0+ 0 nan nan -243.0972 -269.9565 nan 11.05%
0 0 -269.6102 27 -243.0972 Fract:20 193 10.91%
0 0 -269.4497 23 -243.0972 Fract:12 213 10.84%
0 0 -269.4208 24 -243.0972 Fract:4 220 10.83%
0+ 0 nan nan -244.9416 -269.4208 nan 9.99%
0 2 -269.4208 24 -244.9416 -269.4188 220 9.99%
CPXPARAM_MIP_Cuts_Gomory-Disjunctive:Gomory 14
CPXPARAM_MIP_Cuts_Gomory-Disjunctive:Disjunctive 0
1
Node Left Objective IInf Best_Integer Best_Bound ItCnt Gap
0+ 0 nan nan 35615.1100 -3561.5110 nan 110.00%
0+ 0 nan nan -13.9570 -3561.5110 nan ---
0 0 -961.6080 24 -13.9570 -961.6080 119 ---
0+ 0 nan nan -929.6071 -961.6080 nan 3.44%
0 0 -961.6080 23 -929.6071 Fract:7 157 3.44%
0 0 -961.6080 24 -929.6071 Fract:5 176 3.44%
0+ 0 nan nan -948.4583 -961.6080 nan 1.39%
0 2 -961.6080 18 -948.4583 -961.6080 176 1.39%
CPXPARAM_MIP_Cuts_Gomory-Disjunctive:Gomory 1
CPXPARAM_MIP_Cuts_Gomory-Disjunctive:Disjunctive 0
2
Node Left Objective IInf Best_Integer Best_Bound ItCnt Gap
0+ 0 nan nan 43985.9344 -4398.5934 nan 110.00%
0 0 -370.4744 15 43985.9344 -370.4744 120 100.84%
0+ 0 nan nan 77.4880 -370.4744 nan 578.11%
0 0 -370.4744 17 77.4880 Cuts:6 147 578.11%
0+ 0 nan nan -65.7985 -370.4744 nan 463.04%
0 0 -369.1889 25 -65.7985 Cuts:19 169 461.09%
0 0 -368.8449 25 -65.7985 Cuts:15 188 460.57%
0+ 0 nan nan -66.1295 -368.8449 nan 457.76%
0 0 -368.5761 27 -66.1295 Cuts:11 205 457.36%
0 0 -368.2779 27 -66.1295 Cuts:11 222 456.90%
0 0 -368.0110 25 -66.1295 Disjcuts:4 229 456.50%
0+ 0 nan nan -70.1267 -368.0110 nan 424.78%
0 0 -367.8696 27 -70.1267 Fract:1 235 424.58%
0 0 -367.8425 26 -70.1267 Disjcuts:1 238 424.54%
0+ 0 nan nan -346.5196 -367.8425 nan 6.15%
0+ 0 nan nan -346.7693 -367.8425 nan 6.08%
0 2 -367.8425 25 -346.7693 -367.8309 238 6.07%
CPXPARAM_MIP_Cuts_Gomory-Disjunctive:Gomory 3
CPXPARAM_MIP_Cuts_Gomory-Disjunctive:Disjunctive 12
3
Node Left Objective IInf Best_Integer Best_Bound ItCnt Gap
0+ 0 nan nan 30261.1198 -3026.1120 nan 110.00%
0+ 0 nan nan -27.8385 -3026.1120 nan ---
0 0 -817.0502 21 -27.8385 -817.0502 123 ---
0+ 0 nan nan -500.5414 -817.0502 nan 63.23%
0 0 -817.0502 20 -500.5414 Fract:4 130 63.23%
0+ 0 nan nan -503.0172 -817.0502 nan 62.43%
0 0 -817.0502 21 -503.0172 Fract:6 148 62.43%
0 0 -817.0502 18 -503.0172 Fract:3 159 62.43%
0+ 0 nan nan -508.4960 -817.0502 nan 60.68%
0 0 -817.0502 19 -508.4960 Fract:12 179 60.68%
0+ 0 nan nan -510.8141 -817.0502 nan 59.95%
0+ 0 nan nan -792.5793 -817.0502 nan 3.09%
0+ 0 nan nan -793.7375 -817.0502 nan 2.94%
0 2 -817.0502 19 -793.7375 -817.0502 179 2.94%
CPXPARAM_MIP_Cuts_Gomory-Disjunctive:Gomory 2
CPXPARAM_MIP_Cuts_Gomory-Disjunctive:Disjunctive 0
4
Node Left Objective IInf Best_Integer Best_Bound ItCnt Gap
0+ 0 nan nan 34458.7280 -3445.8728 nan 110.00%
0 0 -264.7419 14 34458.7280 -264.7419 108 100.77%
0+ 0 nan nan -234.8089 -264.7419 nan 12.75%
0 0 -264.6472 24 -234.8089 Cuts:11 142 12.71%
0+ 0 nan nan -248.4506 -264.6472 nan 6.52%
0 0 -264.1320 23 -248.4506 Cuts:22 157 6.31%
0 0 -263.8705 27 -248.4506 Cuts:14 178 6.21%
0 0 -263.5701 27 -248.4506 Cuts:27 194 6.09%
0+ 0 nan nan -252.4125 -263.5701 nan 4.42%
0 0 -263.4213 30 -252.4125 Cuts:23 224 4.36%
0+ 0 nan nan -252.5695 -263.4213 nan 4.30%
0 2 -263.4213 31 -252.5695 -263.4099 224 4.29%
CPXPARAM_MIP_Cuts_Gomory-Disjunctive:Gomory 4
CPXPARAM_MIP_Cuts_Gomory-Disjunctive:Disjunctive 17
5
Node Left Objective IInf Best_Integer Best_Bound ItCnt Gap
0+ 0 nan nan 38594.8151 -3859.4815 nan 110.00%
0 0 -1042.0600 24 38594.8151 -1042.0600 131 102.70%
0+ 0 nan nan -643.5865 -1042.0600 nan 61.91%
0 0 -1042.0600 21 -643.5865 Disjcuts:1 135 61.91%
0+ 0 nan nan -659.3828 -1042.0600 nan 58.04%
0 0 -1042.0600 21 -659.3828 Cuts:21 173 58.04%
0+ 0 nan nan -904.3635 -1042.0600 nan 15.23%
0 0 -1042.0600 20 -904.3635 Cuts:4 177 15.23%
0+ 0 nan nan -1019.9144 -1042.0600 nan 2.17%
0+ 0 nan nan -1022.1833 -1042.0600 nan 1.94%
0 2 -1042.0600 19 -1022.1833 -1042.0600 177 1.94%
CPXPARAM_MIP_Cuts_Gomory-Disjunctive:Gomory 0
CPXPARAM_MIP_Cuts_Gomory-Disjunctive:Disjunctive 1
6
Node Left Objective IInf Best_Integer Best_Bound ItCnt Gap
0+ 0 nan nan 34567.3714 -3456.7371 nan 110.00%
0 0 -265.8283 10 34567.3714 -265.8283 105 100.77%
0+ 0 nan nan -259.1378 -265.8283 nan 2.58%
0 0 -265.8283 9 -259.1378 Disjcuts:3 118 2.58%
0+ 0 nan nan -260.0244 -265.8283 nan 2.23%
0 0 -265.8283 15 -260.0244 Cuts:10 138 2.23%
0 0 -265.6007 24 -260.0244 Cuts:7 158 2.14%
0 0 -265.2475 24 -260.0244 Cuts:23 177 2.01%
0 0 -265.0664 24 -260.0244 Cuts:18 197 1.94%
0 0 -265.0664 25 -260.0244 Disjcuts:1 198 1.94%
0 2 -264.9387 11 -260.0244 -264.8713 198 1.86%
CPXPARAM_MIP_Cuts_Gomory-Disjunctive:Gomory 4
CPXPARAM_MIP_Cuts_Gomory-Disjunctive:Disjunctive 17
7
Node Left Objective IInf Best_Integer Best_Bound ItCnt Gap
0+ 0 nan nan 37478.4256 -3747.8426 nan 110.00%
0 0 -1011.9175 20 37478.4256 -1011.9175 132 102.70%
0+ 0 nan nan -758.7340 -1011.9175 nan 33.37%
0 0 -1011.9175 18 -758.7340 Cuts:2 146 33.37%
0+ 0 nan nan -1000.2039 -1011.9175 nan 1.17%
0 0 -1011.9175 19 -1000.2039 Cuts:19 187 1.17%
0 0 -1011.9175 17 -1000.2039 Cuts:2 190 1.17%
0+ 0 nan nan -1001.9738 -1011.9175 nan 0.99%
0 2 -1011.9175 16 -1001.9738 -1011.9175 190 0.99%
CPXPARAM_MIP_Cuts_Gomory-Disjunctive:Gomory 0
CPXPARAM_MIP_Cuts_Gomory-Disjunctive:Disjunctive 0
8
Node Left Objective IInf Best_Integer Best_Bound ItCnt Gap
0+ 0 nan nan 40648.0270 -4064.8027 nan 110.00%
0 0 -308.3092 15 40648.0270 -308.3092 100 100.76%
0+ 0 nan nan -16.3935 -308.3092 nan ---
0 0 -308.3092 19 -16.3935 Cuts:12 127 ---
0+ 0 nan nan -19.2777 -308.3092 nan ---
0 0 -307.9303 16 -19.2777 Cuts:16 141 ---
0+ 0 nan nan -154.5291 -307.9303 nan 99.27%
0 0 -307.3915 21 -154.5291 Cuts:15 156 98.92%
0+ 0 nan nan -158.3898 -307.3915 nan 94.07%
0 0 -307.3291 29 -158.3898 Cuts:27 186 94.03%
0+ 0 nan nan -159.3153 -307.3291 nan 92.91%
0 0 -307.2640 30 -159.3153 Cuts:22 204 92.87%
0 0 -307.2507 30 -159.3153 Cuts:4 218 92.86%
0+ 0 nan nan -296.1822 -307.2507 nan 3.74%
0 2 -307.2507 26 -296.1822 -307.2463 218 3.74%
CPXPARAM_MIP_Cuts_Gomory-Disjunctive:Gomory 7
CPXPARAM_MIP_Cuts_Gomory-Disjunctive:Disjunctive 16
9
Node Left Objective IInf Best_Integer Best_Bound ItCnt Gap
0+ 0 nan nan 39148.7823 -3914.8782 nan 110.00%
0 0 -1057.0171 26 39148.7823 -1057.0171 128 102.70%
0+ 0 nan nan -983.3068 -1057.0171 nan 7.50%
0+ 0 nan nan -1024.0985 -1057.0171 nan 3.21%
0 2 -1057.0171 25 -1024.0985 -1057.0171 128 3.21%
CPXPARAM_MIP_Cuts_Gomory-Disjunctive:Gomory 0
CPXPARAM_MIP_Cuts_Gomory-Disjunctive:Disjunctive 0
10
Node Left Objective IInf Best_Integer Best_Bound ItCnt Gap
0+ 0 nan nan 54374.6429 -5437.4643 nan 110.00%
0 0 -445.5754 15 54374.6429 -445.5754 114 100.82%
0+ 0 nan nan -60.9481 -445.5754 nan 631.07%
0 0 -445.5754 14 -60.9481 Cuts:6 132 631.07%
0+ 0 nan nan -72.0939 -445.5754 nan 518.05%
0 0 -445.4761 20 -72.0939 Cuts:13 153 517.91%
0+ 0 nan nan -78.1507 -445.4761 nan 470.02%
0 0 -444.5684 19 -78.1507 Cuts:16 169 468.86%
0 0 -443.9175 24 -78.1507 Disjcuts:5 181 468.03%
0 0 -443.7051 25 -78.1507 Cuts:12 196 467.76%
0+ 0 nan nan -79.1104 -443.7051 nan 460.87%
0 0 -443.6975 26 -79.1104 Disjcuts:1 199 460.86%
0 0 -443.5629 26 -79.1104 Disjcuts:1 206 460.69%
0 0 -443.4438 23 -79.1104 Disjcuts:2 214 460.54%
0+ 0 nan nan -425.7059 -443.4438 nan 4.17%
0 2 -443.4438 23 -425.7059 -443.3990 214 4.16%
CPXPARAM_MIP_Cuts_Gomory-Disjunctive:Gomory 2
CPXPARAM_MIP_Cuts_Gomory-Disjunctive:Disjunctive 17
11
Node Left Objective IInf Best_Integer Best_Bound ItCnt Gap
0+ 0 nan nan 44941.4154 -4494.1415 nan 110.00%
0 0 -1213.4182 21 44941.4154 -1213.4182 124 102.70%
0+ 0 nan nan -885.8560 -1213.4182 nan 36.98%
0 0 -1213.4182 18 -885.8560 Disjcuts:2 128 36.98%
0+ 0 nan nan -1038.7827 -1213.4182 nan 16.81%
0 0 -1213.4182 21 -1038.7827 Cuts:21 158 16.81%
0 0 -1213.4182 20 -1038.7827 Cuts:12 180 16.81%
0+ 0 nan nan -1044.2195 -1213.4182 nan 16.20%
0+ 0 nan nan -1181.7117 -1213.4182 nan 2.68%
0+ 0 nan nan -1184.4517 -1213.4182 nan 2.45%
0 2 -1213.4182 19 -1184.4517 -1213.4182 180 2.45%
CPXPARAM_MIP_Cuts_Gomory-Disjunctive:Gomory 0
CPXPARAM_MIP_Cuts_Gomory-Disjunctive:Disjunctive 0
12
Node Left Objective IInf Best_Integer Best_Bound ItCnt Gap
0+ 0 nan nan 42580.0140 -4258.0014 nan 110.00%
0 0 -346.6810 17 42580.0140 -346.6810 121 100.81%
0+ 0 nan nan -162.2690 -346.6810 nan 113.65%
0 0 -346.0424 18 -162.2690 Cuts:16 146 113.25%
0+ 0 nan nan -310.5479 -346.0424 nan 11.43%
0 0 -344.8328 21 -310.5479 Cuts:19 162 11.04%
0 0 -344.0898 20 -310.5479 Cuts:21 179 10.80%
0+ 0 nan nan -317.9770 -344.0898 nan 8.21%
0 0 -343.5761 22 -317.9770 Cuts:17 197 8.05%
0 0 -343.1777 27 -317.9770 Cuts:19 228 7.93%
0 0 -343.1249 30 -317.9770 Cuts:3 238 7.91%
0 0 -343.0739 25 -317.9770 Cuts:2 254 7.89%
0 0 -343.0718 27 -317.9770 Disjcuts:2 257 7.89%
0+ 0 nan nan -318.2214 -343.0718 nan 7.81%
0 0 -343.0698 26 -318.2214 Fract:1 260 7.81%
0+ 0 nan nan -321.1792 -343.0698 nan 6.82%
0 2 -343.0698 25 -321.1792 -343.0301 260 6.80%
CPXPARAM_MIP_Cuts_Gomory-Disjunctive:Gomory 6
CPXPARAM_MIP_Cuts_Gomory-Disjunctive:Disjunctive 13
13
Node Left Objective IInf Best_Integer Best_Bound ItCnt Gap
0+ 0 nan nan 37422.3656 -3742.2366 nan 110.00%
0 0 -1010.4039 26 37422.3656 -1010.4039 127 102.70%
0+ 0 nan nan -705.3729 -1010.4039 nan 43.24%
0+ 0 nan nan -835.0344 -1010.4039 nan 21.00%
0+ 0 nan nan -960.5667 -1010.4039 nan 5.19%
0+ 0 nan nan -963.1022 -1010.4039 nan 4.91%
0 2 -1010.4039 22 -963.1022 -1010.4039 127 4.91%
CPXPARAM_MIP_Cuts_Gomory-Disjunctive:Gomory 0
CPXPARAM_MIP_Cuts_Gomory-Disjunctive:Disjunctive 0
14
Node Left Objective IInf Best_Integer Best_Bound ItCnt Gap
0+ 0 nan nan 45478.3676 -4547.8368 nan 110.00%
0+ 0 nan nan -71.5867 -4547.8368 nan ---
0 0 -375.6645 14 -71.5867 -375.6645 118 424.77%
0+ 0 nan nan -210.9861 -375.6645 nan 78.05%
0 0 -375.6645 15 -210.9861 Fract:5 143 78.05%
0 0 -374.5720 24 -210.9861 Fract:12 167 77.53%
0+ 0 nan nan -215.8596 -374.5720 nan 73.53%
0 0 -374.0790 22 -215.8596 Fract:7 182 73.30%
0 0 -373.7028 23 -215.8596 Fract:8 196 73.12%
0 0 -373.4748 22 -215.8596 Fract:4 209 73.02%
0 0 -373.3615 23 -215.8596 Fract:4 223 72.96%
0 0 -373.3260 23 -215.8596 Fract:3 230 72.95%
0 0 -373.3034 24 -215.8596 Fract:3 240 72.94%
0+ 0 nan nan -355.6120 -373.3034 nan 4.97%
0+ 0 nan nan -356.7045 -373.3034 nan 4.65%
0 2 -373.3034 23 -356.7045 -373.2788 240 4.65%
CPXPARAM_MIP_Cuts_Gomory-Disjunctive:Gomory 14
CPXPARAM_MIP_Cuts_Gomory-Disjunctive:Disjunctive 0
15
Node Left Objective IInf Best_Integer Best_Bound ItCnt Gap
0+ 0 nan nan 40586.2473 -4058.6247 nan 110.00%
0+ 0 nan nan -55.2796 -4058.6247 nan ---
0 0 -1095.8287 21 -55.2796 -1095.8287 127 ---
0+ 0 nan nan -810.7899 -1095.8287 nan 35.16%
0 0 -1095.8287 19 -810.7899 Fract:1 128 35.16%
0+ 0 nan nan -935.8588 -1095.8287 nan 17.09%
0 0 -1095.8287 20 -935.8588 Fract:19 157 17.09%
0+ 0 nan nan -1061.6499 -1095.8287 nan 3.22%
0 0 -1095.8287 16 -1061.6499 Fract:1 158 3.22%
0 0 -1095.8287 18 -1061.6499 Fract:13 173 3.22%
0 2 -1095.8287 17 -1061.6499 -1095.8287 173 3.22%
CPXPARAM_MIP_Cuts_Gomory-Disjunctive:Gomory 1
CPXPARAM_MIP_Cuts_Gomory-Disjunctive:Disjunctive 0
16
Node Left Objective IInf Best_Integer Best_Bound ItCnt Gap
0+ 0 nan nan 43744.3909 -4374.4391 nan 110.00%
0 0 -350.8553 16 43744.3909 -350.8553 106 100.80%
0+ 0 nan nan -164.1045 -350.8553 nan 113.80%
0 0 -350.8539 21 -164.1045 Cuts:14 136 113.80%
0+ 0 nan nan -182.6710 -350.8539 nan 92.07%
0 0 -349.8752 27 -182.6710 Cuts:15 159 91.53%
0+ 0 nan nan -189.5883 -349.8752 nan 84.54%
0 0 -349.5607 25 -189.5883 Cuts:10 168 84.38%
0 0 -349.2834 29 -189.5883 Cuts:4 180 84.23%
0 0 -349.1137 27 -189.5883 Cuts:8 196 84.14%
0 0 -349.0600 29 -189.5883 Cuts:4 204 84.11%
0 0 -349.0061 27 -189.5883 Cuts:4 214 84.09%
0 0 -349.0061 27 -189.5883 Fract:1 215 84.09%
0+ 0 nan nan -317.6092 -349.0061 nan 9.89%
0+ 0 nan nan -320.0394 -349.0061 nan 9.05%
0 2 -349.0061 27 -320.0394 -348.9167 215 9.02%
CPXPARAM_MIP_Cuts_Gomory-Disjunctive:Gomory 11
CPXPARAM_MIP_Cuts_Gomory-Disjunctive:Disjunctive 12
17
Node Left Objective IInf Best_Integer Best_Bound ItCnt Gap
0+ 0 nan nan 33279.2221 -3327.9222 nan 110.00%
0+ 0 nan nan -3.4967 -3327.9222 nan ---
0 0 -898.5390 26 -3.4967 -898.5390 128 ---
0+ 0 nan nan -737.6936 -898.5390 nan 21.80%
0 0 -898.5390 25 -737.6936 Fract:3 131 21.80%
0 0 -898.5390 28 -737.6936 Fract:24 174 21.80%
0 0 -898.5390 27 -737.6936 Fract:4 190 21.80%
0+ 0 nan nan -748.5445 -898.5390 nan 20.04%
0+ 0 nan nan -851.4666 -898.5390 nan 5.53%
0+ 0 nan nan -862.1895 -898.5390 nan 4.22%
0+ 0 nan nan -865.0799 -898.5390 nan 3.87%
0 2 -898.5390 26 -865.0799 -898.5390 190 3.87%
CPXPARAM_MIP_Cuts_Gomory-Disjunctive:Gomory 1
CPXPARAM_MIP_Cuts_Gomory-Disjunctive:Disjunctive 0
18
Node Left Objective IInf Best_Integer Best_Bound ItCnt Gap
0+ 0 nan nan 37643.8042 -3764.3804 nan 110.00%
0 0 -289.8495 10 37643.8042 -289.8495 101 100.77%
0+ 0 nan nan -272.0103 -289.8495 nan 6.56%
0 0 -289.8495 10 -272.0103 Disjcuts:6 120 6.56%
0+ 0 nan nan -280.6065 -289.8495 nan 3.29%
0 0 -289.6444 17 -280.6065 Cuts:9 141 3.22%
0 0 -289.1176 21 -280.6065 Cuts:12 150 3.03%
0 0 -288.8455 23 -280.6065 Cuts:16 166 2.94%
0 0 -288.6343 22 -280.6065 Cuts:14 180 2.86%
0 0 -288.5958 24 -280.6065 Cuts:3 182 2.85%
0 0 -288.5739 23 -280.6065 Cuts:4 185 2.84%
0 0 -288.5349 23 -280.6065 Disjcuts:1 186 2.83%
0 2 -288.3206 16 -280.6065 -288.2671 186 2.73%
CPXPARAM_MIP_Cuts_Gomory-Disjunctive:Gomory 6
CPXPARAM_MIP_Cuts_Gomory-Disjunctive:Disjunctive 14
19
Node Left Objective IInf Best_Integer Best_Bound ItCnt Gap
0+ 0 nan nan 38025.4807 -3802.5481 nan 110.00%
0 0 -1026.6880 21 38025.4807 -1026.6880 120 102.70%
0+ 0 nan nan -139.4268 -1026.6880 nan 636.36%
0+ 0 nan nan -876.0230 -1026.6880 nan 17.20%
0 0 -1026.6880 19 -876.0230 Cuts:3 127 17.20%
0 0 -1026.6880 20 -876.0230 Cuts:8 154 17.20%
0 0 -1026.6880 22 -876.0230 Cuts:24 182 17.20%
0+ 0 nan nan -1000.5432 -1026.6880 nan 2.61%
0+ 0 nan nan -1000.6343 -1026.6880 nan 2.60%
0 2 -1026.6880 20 -1000.6343 -1026.6880 182 2.60%
CPXPARAM_MIP_Cuts_Gomory-Disjunctive:Gomory 0
CPXPARAM_MIP_Cuts_Gomory-Disjunctive:Disjunctive 0
20
Node Left Objective IInf Best_Integer Best_Bound ItCnt Gap
0+ 0 nan nan 30230.0491 -3023.0049 nan 110.00%
0+ 0 nan nan -31.8492 -3023.0049 nan ---
0 0 -244.0260 13 -31.8492 -244.0260 114 666.19%
0+ 0 nan nan -225.0974 -244.0260 nan 8.41%
0 0 -244.0136 24 -225.0974 Fract:8 153 8.40%
0 0 -243.3892 29 -225.0974 Fract:15 173 8.13%
0 0 -243.0982 28 -225.0974 Fract:12 188 8.00%
0+ 0 nan nan -235.2058 -243.0982 nan 3.36%
0 0 -243.0460 30 -235.2058 Fract:15 215 3.33%
0+ 0 nan nan -237.0667 -243.0460 nan 2.52%
0 0 -242.9621 25 -237.0667 Fract:10 243 2.49%
0 2 -242.8145 14 -237.0667 -242.8099 243 2.42%
CPXPARAM_MIP_Cuts_Gomory-Disjunctive:Gomory 13
CPXPARAM_MIP_Cuts_Gomory-Disjunctive:Disjunctive 0
21
Node Left Objective IInf Best_Integer Best_Bound ItCnt Gap
0+ 0 nan nan 30666.8495 -3066.6850 nan 110.00%
0+ 0 nan nan -33.3052 -3066.6850 nan ---
0 0 -828.0049 23 -33.3052 -828.0049 122 ---
0+ 0 nan nan -702.5842 -828.0049 nan 17.85%
0 0 -828.0049 22 -702.5842 Fract:1 126 17.85%
0 0 -828.0049 23 -702.5842 Fract:9 141 17.85%
0+ 0 nan nan -714.6256 -828.0049 nan 15.87%
0 0 -828.0049 20 -714.6256 Fract:3 159 15.87%
0 0 -828.0049 22 -714.6256 Fract:5 189 15.87%
0+ 0 nan nan -716.4953 -828.0049 nan 15.56%
0+ 0 nan nan -810.4758 -828.0049 nan 2.16%
0+ 0 nan nan -811.0195 -828.0049 nan 2.09%
0 2 -828.0049 19 -811.0195 -828.0049 189 2.09%
CPXPARAM_MIP_Cuts_Gomory-Disjunctive:Gomory 1
CPXPARAM_MIP_Cuts_Gomory-Disjunctive:Disjunctive 0
22
Node Left Objective IInf Best_Integer Best_Bound ItCnt Gap
0+ 0 nan nan 31159.1377 -3115.9138 nan 110.00%
0+ 0 nan nan -43.0892 -3115.9138 nan ---
0 0 -253.3169 9 -43.0892 -253.3169 105 487.89%
0+ 0 nan nan -248.1698 -253.3169 nan 2.07%
0 0 -253.2942 21 -248.1698 Fract:8 131 2.06%
0 0 -253.1123 23 -248.1698 Fract:4 139 1.99%
0 0 -253.0156 21 -248.1698 Fract:4 154 1.95%
0+ 0 nan nan -251.8782 -253.0156 nan 0.45%
0 0 -252.8277 20 -251.8782 Fract:2 166 0.38%
0 0 -252.8003 20 -251.8782 Fract:3 170 0.37%
0 0 -252.7836 21 -251.8782 Fract:1 176 0.36%
0 0 -252.7636 21 -251.8782 Fract:1 184 0.35%
0+ 0 nan nan -251.8782 -252.7636 nan 0.35%
0 0 -252.2707 6 -251.8782 -252.2707 272 0.16%
0 0 -251.8899 2 -251.8782 Fract:1 287 0.00%
CPXPARAM_MIP_Cuts_Gomory-Disjunctive:Gomory 2
CPXPARAM_MIP_Cuts_Gomory-Disjunctive:Disjunctive 0
23
Node Left Objective IInf Best_Integer Best_Bound ItCnt Gap
0+ 0 nan nan 32197.4304 -3219.7430 nan 110.00%
0+ 0 nan nan -46.5502 -3219.7430 nan ---
0 0 -869.3306 18 -46.5502 -869.3306 127 ---
0+ 0 nan nan -332.7068 -869.3306 nan 161.29%
0+ 0 nan nan -560.8164 -869.3306 nan 55.01%
0 0 -869.3306 15 -560.8164 Fract:1 133 55.01%
0+ 0 nan nan -765.0743 -869.3306 nan 13.63%
0 0 -869.3306 18 -765.0743 Fract:10 170 13.63%
0+ 0 nan nan -861.8926 -869.3306 nan 0.86%
0 0 -869.3306 15 -861.8926 Fract:2 176 0.86%
0+ 0 nan nan -862.9352 -869.3306 nan 0.74%
0 0 -869.3306 16 -862.9352 Fract:5 204 0.74%
0 2 -869.3306 16 -862.9352 -869.3306 204 0.74%
CPXPARAM_MIP_Cuts_Gomory-Disjunctive:Gomory 2
CPXPARAM_MIP_Cuts_Gomory-Disjunctive:Disjunctive 0
24
Node Left Objective IInf Best_Integer Best_Bound ItCnt Gap
0+ 0 nan nan 36872.8889 -3687.2889 nan 110.00%
0 0 -299.8887 17 36872.8889 -299.8887 109 100.81%
0+ 0 nan nan -277.2847 -299.8887 nan 8.15%
0 0 -299.8434 23 -277.2847 Cuts:11 141 8.14%
0 0 -298.8879 29 -277.2847 Cuts:23 181 7.79%
0+ 0 nan nan -283.4137 -298.8879 nan 5.46%
0 0 -298.4206 32 -283.4137 Cuts:16 202 5.30%
0+ 0 nan nan -283.9461 -298.4206 nan 5.10%
0 0 -297.9322 30 -283.9461 Cuts:25 224 4.93%
0+ 0 nan nan -287.8325 -297.9322 nan 3.51%
0 0 -297.6040 34 -287.8325 Cuts:23 246 3.39%
0+ 0 nan nan -288.1441 -297.6040 nan 3.28%
0 0 -297.5767 35 -288.1441 Disjcuts:3 255 3.27%
0 0 -297.5679 34 -288.1441 Cuts:5 260 3.27%
0+ 0 nan nan -290.4515 -297.5679 nan 2.45%
0 2 -297.1231 19 -290.4515 -297.1134 260 2.29%
CPXPARAM_MIP_Cuts_Gomory-Disjunctive:Gomory 3
CPXPARAM_MIP_Cuts_Gomory-Disjunctive:Disjunctive 17
25
Node Left Objective IInf Best_Integer Best_Bound ItCnt Gap
0+ 0 nan nan 37613.4338 -3761.3434 nan 110.00%
0 0 -1015.5627 24 37613.4338 -1015.5627 125 102.70%
0+ 0 nan nan -760.1720 -1015.5627 nan 33.60%
0+ 0 nan nan -993.4120 -1015.5627 nan 2.23%
0+ 0 nan nan -1004.3518 -1015.5627 nan 1.12%
0 2 -1015.5627 19 -1004.3518 -1015.5627 125 1.12%
CPXPARAM_MIP_Cuts_Gomory-Disjunctive:Gomory 0
CPXPARAM_MIP_Cuts_Gomory-Disjunctive:Disjunctive 0
26
Node Left Objective IInf Best_Integer Best_Bound ItCnt Gap
0+ 0 nan nan 37114.4669 -3711.4467 nan 110.00%
0 0 -302.3044 14 37114.4669 -302.3044 115 100.81%
0+ 0 nan nan -295.0976 -302.3044 nan 2.44%
0 0 -302.3044 12 -295.0976 Disjcuts:4 129 2.44%
0 0 -301.7081 22 -295.0976 Cuts:11 160 2.24%
0+ 0 nan nan -295.9767 -301.7081 nan 1.94%
0 0 -301.1047 22 -295.9767 Cuts:19 178 1.73%
0 0 -300.6798 23 -295.9767 Cuts:21 203 1.59%
0+ 0 nan nan -296.0124 -300.6798 nan 1.58%
0 0 -300.4152 20 -296.0124 Cuts:23 228 1.49%
0 0 -300.3826 20 -296.0124 Disjcuts:3 237 1.48%
0 0 -300.3812 20 -296.0124 Disjcuts:1 239 1.48%
0 2 -300.2373 8 -296.0124 -300.2110 239 1.42%
CPXPARAM_MIP_Cuts_Gomory-Disjunctive:Gomory 0
CPXPARAM_MIP_Cuts_Gomory-Disjunctive:Disjunctive 13
27
Node Left Objective IInf Best_Integer Best_Bound ItCnt Gap
0+ 0 nan nan 34215.7860 -3421.5786 nan 110.00%
0 0 -923.8262 20 34215.7860 -923.8262 128 102.70%
0+ 0 nan nan -707.7491 -923.8262 nan 30.53%
0+ 0 nan nan -811.5216 -923.8262 nan 13.84%
0+ 0 nan nan -914.5259 -923.8262 nan 1.02%
0 2 -923.8262 15 -914.5259 -923.8262 128 1.02%
CPXPARAM_MIP_Cuts_Gomory-Disjunctive:Gomory 0
CPXPARAM_MIP_Cuts_Gomory-Disjunctive:Disjunctive 0
28
Node Left Objective IInf Best_Integer Best_Bound ItCnt Gap
0+ 0 nan nan 46391.8076 -4639.1808 nan 110.00%
0 0 -359.4519 17 46391.8076 -359.4519 119 100.77%
0+ 0 nan nan -334.9967 -359.4519 nan 7.30%
0 0 -359.4391 18 -334.9967 Disjcuts:7 147 7.30%
0 0 -358.7427 29 -334.9967 Cuts:18 179 7.09%
0+ 0 nan nan -337.4949 -358.7427 nan 6.30%
0 0 -358.0666 32 -337.4949 Cuts:37 205 6.10%
0 0 -357.5334 35 -337.4949 Cuts:28 235 5.94%
0 0 -356.9774 35 -337.4949 Cuts:22 257 5.77%
0+ 0 nan nan -338.4025 -356.9774 nan 5.49%
0 2 -356.9774 35 -338.4025 -356.9022 257 5.47%
CPXPARAM_MIP_Cuts_Gomory-Disjunctive:Gomory 1
CPXPARAM_MIP_Cuts_Gomory-Disjunctive:Disjunctive 21
29
Node Left Objective IInf Best_Integer Best_Bound ItCnt Gap
0+ 0 nan nan 36947.3145 -3694.7314 nan 110.00%
0 0 -997.5775 25 36947.3145 -997.5775 124 102.70%
0+ 0 nan nan -979.0513 -997.5775 nan 1.89%
0 0 -997.5775 26 -979.0513 Cuts:6 151 1.89%
0 0 -997.3972 28 -979.0513 Cuts:17 215 1.87%
0 0 -996.8372 32 -979.0513 Cuts:39 238 1.82%
0 0 -996.4937 32 -979.0513 Cuts:22 274 1.78%
0 0 -996.0526 33 -979.0513 Cuts:18 301 1.74%
0+ 0 nan nan -981.4535 -996.0526 nan 1.49%
0 0 -996.0401 36 -981.4535 Cuts:7 312 1.49%
0 2 -996.0401 35 -981.4535 -995.9901 312 1.48%
CPXPARAM_MIP_Cuts_Gomory-Disjunctive:Gomory 1
CPXPARAM_MIP_Cuts_Gomory-Disjunctive:Disjunctive 16
30
Node Left Objective IInf Best_Integer Best_Bound ItCnt Gap
0+ 0 nan nan 40025.0748 -4002.5075 nan 110.00%
0 0 -295.7845 13 40025.0748 -295.7845 119 100.74%
0+ 0 nan nan -286.3721 -295.7845 nan 3.29%
0 0 -295.7845 14 -286.3721 Cuts:6 143 3.29%
0+ 0 nan nan -288.3948 -295.7845 nan 2.56%
0 0 -295.7845 13 -288.3948 Disjcuts:1 156 2.56%
0 2 -295.7845 6 -288.3948 -295.7845 156 2.56%
CPXPARAM_MIP_Cuts_Gomory-Disjunctive:Gomory 0
CPXPARAM_MIP_Cuts_Gomory-Disjunctive:Disjunctive 5
31
Node Left Objective IInf Best_Integer Best_Bound ItCnt Gap
0+ 0 nan nan 40939.1052 -4093.9105 nan 110.00%
0 0 -1105.3558 21 40939.1052 -1105.3558 125 102.70%
0+ 0 nan nan -829.4882 -1105.3558 nan 33.26%
0 0 -1105.3558 17 -829.4882 Cuts:4 143 33.26%
0+ 0 nan nan -1095.1558 -1105.3558 nan 0.93%
0 0 -1105.3558 22 -1095.1558 Cuts:19 197 0.93%
0 0 -1105.3558 19 -1095.1558 Cuts:8 216 0.93%
0+ 0 nan nan -1097.2775 -1105.3558 nan 0.74%
0 0 -1105.3558 22 -1097.2775 Cuts:18 263 0.74%
0 2 -1105.3558 18 -1097.2775 -1105.3558 263 0.74%
CPXPARAM_MIP_Cuts_Gomory-Disjunctive:Gomory 1
CPXPARAM_MIP_Cuts_Gomory-Disjunctive:Disjunctive 2
32
Node Left Objective IInf Best_Integer Best_Bound ItCnt Gap
0+ 0 nan nan 27822.1458 -2782.2146 nan 110.00%
0 0 -209.7516 14 27822.1458 -209.7516 106 100.75%
0+ 0 nan nan -175.4149 -209.7516 nan 19.57%
0 0 -209.6540 18 -175.4149 Cuts:15 126 19.52%
0 0 -209.0480 25 -175.4149 Cuts:18 149 19.17%
0 0 -208.8823 26 -175.4149 Cuts:21 169 19.08%
0 0 -208.7416 26 -175.4149 Cuts:31 209 19.00%
0 0 -208.6562 24 -175.4149 Cuts:18 228 18.95%
0 0 -208.6487 27 -175.4149 Cuts:10 239 18.95%
0 0 -208.6487 27 -175.4149 Cuts:2 248 18.95%
0+ 0 nan nan -199.2661 -208.6487 nan 4.71%
0 2 -208.6455 25 -199.2661 -208.6423 248 4.71%
CPXPARAM_MIP_Cuts_Gomory-Disjunctive:Gomory 6
CPXPARAM_MIP_Cuts_Gomory-Disjunctive:Disjunctive 11
33
Node Left Objective IInf Best_Integer Best_Bound ItCnt Gap
0+ 0 nan nan 33496.9025 -3349.6902 nan 110.00%
0 0 -904.4164 25 33496.9025 -904.4164 130 102.70%
0+ 0 nan nan -865.0838 -904.4164 nan 4.55%
0 0 -904.4164 22 -865.0838 Cuts:2 133 4.55%
0 0 -904.4164 22 -865.0838 Cuts:26 174 4.55%
0 0 -904.4164 24 -865.0838 Cuts:19 209 4.55%
0+ 0 nan nan -878.3717 -904.4164 nan 2.97%
0+ 0 nan nan -883.3941 -904.4164 nan 2.38%
0 2 -904.4164 21 -883.3941 -904.4164 209 2.38%
CPXPARAM_MIP_Cuts_Gomory-Disjunctive:Gomory 1
CPXPARAM_MIP_Cuts_Gomory-Disjunctive:Disjunctive 4
34
Node Left Objective IInf Best_Integer Best_Bound ItCnt Gap
0+ 0 nan nan 38110.0204 -3811.0020 nan 110.00%
0 0 -312.6304 12 38110.0204 -312.6304 122 100.82%
0+ 0 nan nan -175.2687 -312.6304 nan 78.37%
0 0 -312.6304 15 -175.2687 Cuts:9 150 78.37%
0 0 -312.1798 23 -175.2687 Cuts:8 184 78.11%
0 0 -311.3440 24 -175.2687 Cuts:10 202 77.64%
0 0 -311.1717 24 -175.2687 Cuts:12 216 77.54%
0+ 0 nan nan -175.3625 -311.1717 nan 77.44%
0 0 -310.7437 24 -175.3625 Disjcuts:10 235 77.20%
0 0 -310.6260 24 -175.3625 Disjcuts:1 238 77.13%
0+ 0 nan nan -178.4578 -310.6260 nan 74.06%
0 0 -310.5124 24 -178.4578 Cuts:3 241 74.00%
0+ 0 nan nan -297.5548 -310.5124 nan 4.35%
0 2 -310.5124 24 -297.5548 -310.4597 241 4.34%
CPXPARAM_MIP_Cuts_Gomory-Disjunctive:Gomory 2
CPXPARAM_MIP_Cuts_Gomory-Disjunctive:Disjunctive 13
35
Node Left Objective IInf Best_Integer Best_Bound ItCnt Gap
0+ 0 nan nan 33566.4825 -3356.6483 nan 110.00%
0 0 -906.2950 21 33566.4825 -906.2950 126 102.70%
0+ 0 nan nan -885.1752 -906.2950 nan 2.39%
0+ 0 nan nan -887.9717 -906.2950 nan 2.06%
0 2 -906.2950 17 -887.9717 -906.2950 126 2.06%
CPXPARAM_MIP_Cuts_Gomory-Disjunctive:Gomory 0
CPXPARAM_MIP_Cuts_Gomory-Disjunctive:Disjunctive 0
36
Node Left Objective IInf Best_Integer Best_Bound ItCnt Gap
0+ 0 nan nan 45883.4930 -4588.3493 nan 110.00%
0 0 -377.7957 15 45883.4930 -377.7957 107 100.82%
0+ 0 nan nan -345.5921 -377.7957 nan 9.32%
0 0 -377.7957 21 -345.5921 Cuts:9 137 9.32%
0 0 -376.6180 29 -345.5921 Cuts:18 182 8.98%
0 0 -376.1983 28 -345.5921 Cuts:18 205 8.86%
0 0 -375.6164 33 -345.5921 Cuts:23 237 8.69%
0 0 -375.2248 33 -345.5921 Cuts:24 262 8.57%
0+ 0 nan nan -349.7561 -375.2248 nan 7.28%
0 0 -375.1315 31 -349.7561 Disjcuts:2 270 7.26%
0+ 0 nan nan -356.1811 -375.1315 nan 5.32%
0 2 -375.1315 31 -356.1811 -375.1291 270 5.32%
CPXPARAM_MIP_Cuts_Gomory-Disjunctive:Gomory 2
CPXPARAM_MIP_Cuts_Gomory-Disjunctive:Disjunctive 18
37
Node Left Objective IInf Best_Integer Best_Bound ItCnt Gap
0+ 0 nan nan 44507.5424 -4450.7542 nan 110.00%
0 0 -1201.7036 26 44507.5424 -1201.7036 140 102.70%
0+ 0 nan nan -1008.4131 -1201.7036 nan 19.17%
0 0 -1201.7036 21 -1008.4131 Disjcuts:5 152 19.17%
0 0 -1201.7036 25 -1008.4131 Cuts:12 208 19.17%
0+ 0 nan nan -1020.6991 -1201.7036 nan 17.73%
0+ 0 nan nan -1036.0616 -1201.7036 nan 15.99%
0+ 0 nan nan -1175.2046 -1201.7036 nan 2.25%
0 2 -1201.7036 19 -1175.2046 -1201.7036 208 2.25%
CPXPARAM_MIP_Cuts_Gomory-Disjunctive:Gomory 0
CPXPARAM_MIP_Cuts_Gomory-Disjunctive:Disjunctive 0
38
Node Left Objective IInf Best_Integer Best_Bound ItCnt Gap
0+ 0 nan nan 38248.3521 -3824.8352 nan 110.00%
0 0 -301.4443 11 38248.3521 -301.4443 110 100.79%
0+ 0 nan nan -290.9742 -301.4443 nan 3.60%
0 0 -301.4443 12 -290.9742 Disjcuts:3 122 3.60%
0 0 -301.4443 16 -290.9742 Cuts:5 141 3.60%
0+ 0 nan nan -293.2435 -301.4443 nan 2.80%
0 2 -301.4443 11 -293.2435 -301.4443 141 2.80%
CPXPARAM_MIP_Cuts_Gomory-Disjunctive:Gomory 3
CPXPARAM_MIP_Cuts_Gomory-Disjunctive:Disjunctive 5
39
Node Left Objective IInf Best_Integer Best_Bound ItCnt Gap
0+ 0 nan nan 45236.5952 -4523.6595 nan 110.00%
0 0 -1221.3881 20 45236.5952 -1221.3881 136 102.70%
0+ 0 nan nan -646.1394 -1221.3881 nan 89.03%
0 0 -1221.3881 15 -646.1394 Disjcuts:2 144 89.03%
0+ 0 nan nan -1072.1577 -1221.3881 nan 13.92%
0 0 -1221.3881 19 -1072.1577 Cuts:15 170 13.92%
0 0 -1221.3881 15 -1072.1577 Disjcuts:3 177 13.92%
0 0 -1221.3881 17 -1072.1577 Cuts:9 202 13.92%
0+ 0 nan nan -1209.9337 -1221.3881 nan 0.95%
0 2 -1221.3881 15 -1209.9337 -1221.3881 202 0.95%
CPXPARAM_MIP_Cuts_Gomory-Disjunctive:Gomory 0
CPXPARAM_MIP_Cuts_Gomory-Disjunctive:Disjunctive 1
